1167.64 0
0 119 82 95 116 98 72 75 78 80 56 55 53 97 94 93 0
0 101 99 104 103 69 70 67 73 76 68 109 7 9 10 6 83 117 112 111 0
0 120 107 71 74 77 79 58 60 63 66 64 62 61 65 110 100 102 0
0 88 86 21 23 26 37 42 47 51 50 49 32 35 31 28 24 22 19 17 0
0 96 115 40 43 48 45 59 57 54 52 13 11 4 3 5 81 0
0 91 90 18 114 39 38 41 44 46 29 36 34 33 30 27 25 20 16 106 105 0
0 87 92 89 118 108 8 12 14 15 1 2 113 84 85 0